proyfinal/src/viki/013/experimentInOfficeAgust.take6.output/6d457713-8b80-40c0-9fc7-7716fd74ede4.als.dat
{'cnf.clauses': '118081',
 'cnf.totvars': '69608',
 'conflict literals': '5',
 'conflicts': '5',
 'decisions': '5306',
 'memused.mb': '16.42',
 'outcome': 'UNSAT',
 'propagations': '30044',
 'restarts': '1',
 'solver.msecs': 34,
 'task.msecs': 82}
