proyfinal/src/viki/013/experimentInOfficeAgust.take6.output/6d457713-8b80-40c0-9fc7-7716fd74ede4.als.out
Reading from standard input... Use '--help' for help.
============================[ Problem Statistics ]=============================
|                                                                             |
|  Number of variables:         69608                                         |
|  Number of clauses:          118081                                         |
|  Parse time:                   0.03 s                                       |
|                                                                             |
============================[ Search Statistics ]==============================
| Conflicts |          ORIGINAL         |          LEARNT          | Progress |
|           |    Vars  Clauses Literals |    Limit  Clauses Lit/Cl |          |
===============================================================================
===============================================================================
restarts              : 1
conflicts             : 5              (144 /sec)
decisions             : 5306           (0.00 % random) (153158 /sec)
propagations          : 30044          (867221 /sec)
conflict literals     : 5              (0.00 % deleted)
Memory used           : 16.42 MB
CPU time              : 0.034644 s

UNSATISFIABLE
